data/solutions/recovery/degenerate/intermediate/binding/degenerate_intermediate_instance23/10.sol
Elapsed time: 0.05
Upper bound: 235745052.0
Planning weighted value: 9.22908186765e+11
C[0]=235745052.0
C[1]=235695061.0
C[2]=234970193.0
C[3]=229972943.0
C[4]=229546432.0
C[5]=226648175.0
C[6]=225871032.0
C[7]=225248414.0
C[8]=217214300.0
C[9]=213310623.0
C[10]=208183675.0
C[11]=0.0
y[0]=8
y[1]=3
y[2]=8
y[3]=4
y[4]=6
y[5]=10
y[6]=0
y[7]=8
y[8]=0
y[9]=2
y[10]=2
y[11]=4
y[12]=10
y[13]=1
y[14]=9
y[15]=9
y[16]=2
y[17]=4
y[18]=1
y[19]=1
y[20]=9
y[21]=4
y[22]=3
y[23]=9
y[24]=2
y[25]=8
y[26]=2
y[27]=0
y[28]=8
y[29]=0
y[30]=5
y[31]=6
y[32]=4
y[33]=5
y[34]=7
y[35]=5
y[36]=7
y[37]=6
y[38]=6
y[39]=10
y[40]=10
y[41]=9
y[42]=4
y[43]=2
y[44]=10
y[45]=3
y[46]=10
y[47]=7
y[48]=10
y[49]=4
y[50]=7
y[51]=1
y[52]=8
y[53]=0
y[54]=2
y[55]=10
y[56]=5
y[57]=2
y[58]=6
y[59]=7
y[60]=5
y[61]=9
y[62]=1
y[63]=0
y[64]=7
y[65]=6
y[66]=0
y[67]=3
y[68]=3
y[69]=6
y[70]=7
y[71]=5
y[72]=3
y[73]=9
y[74]=0
y[75]=1
y[76]=7
y[77]=3
