data/solutions/recovery/degenerate/intermediate/binding/degenerate_intermediate_instance23/10.log

Log started (V12.6.3.0) Sun Apr 22 12:29:23 2018

New value for default parallel thread count: 1

Problem '/tmp/tmpSbJWYv.pyomo.lp' read.
Read time = 0.02 sec. (0.85 ticks)

Problem name         : /tmp/tmpSbJWYv.pyomo.lp
Objective sense      : Minimize
Variables            :     950  [Nneg: 1,  Binary: 936,  General Integer: 13]
Objective nonzeros   :       1
Linear constraints   :     182  [Less: 90,  Equal: 92]
  Nonzeros           :   61117
  RHS nonzeros       :      79

Variables            : Min LB: 0.000000         Max UB: 1.000000       
Objective nonzeros   : Min   : 1.000000         Max   : 1.000000       
Linear constraints   :
  Nonzeros           : Min   : 1.000000         Max   : 6.145599e+07   
  RHS nonzeros       : Min   : 1.000000         Max   : 1.000000       
Tried aggregator 1 time.
MIP Presolve eliminated 151 rows and 839 columns.
Reduced MIP has 31 rows, 111 columns, and 231 nonzeros.
Reduced MIP has 99 binaries, 12 generals, 0 SOSs, and 0 indicators.
Presolve time = 0.00 sec. (3.37 ticks)
Found incumbent of value 5.6328897e+08 after 0.01 sec. (4.87 ticks)
Probing time = 0.00 sec. (0.32 ticks)
Tried aggregator 1 time.
Reduced MIP has 31 rows, 111 columns, and 231 nonzeros.
Reduced MIP has 99 binaries, 12 generals, 0 SOSs, and 0 indicators.
Presolve time = 0.00 sec. (0.18 ticks)
Probing time = 0.00 sec. (0.32 ticks)
Clique table members: 9.
MIP emphasis: balance optimality and feasibility.
MIP search method: dynamic search.
Parallel mode: none, using 1 thread.
Root relaxation solution time = 0.00 sec. (0.25 ticks)

        Nodes                                         Cuts/
   Node  Left     Objective  IInf  Best Integer    Best Bound    ItCnt     Gap

*     0+    0                       5.63289e+08   2.26648e+08            59.76%
      0     0   2.26648e+08    15   5.63289e+08   2.26648e+08       62   59.76%
      0     0   2.27292e+08    28   5.63289e+08      Fract: 7       93   59.65%
      0     0   2.27954e+08    29   5.63289e+08      Fract: 2      109   59.53%
*     0+    0                       2.62354e+08   2.27954e+08            13.11%
      0     2   2.27958e+08    29   2.62354e+08   2.27958e+08      112   13.11%
Elapsed time = 0.01 sec. (9.14 ticks, tree = 0.01 MB, solutions = 2)
*    20+   16                       2.47966e+08   2.27958e+08             8.07%
*    30+   22                       2.47518e+08   2.27958e+08             7.90%
*    46    32      integral     0   2.42905e+08   2.27958e+08      336    6.15%
*    50+   23                       2.39169e+08   2.27958e+08             4.69%
*    80+   34                       2.37145e+08   2.27958e+08             3.87%
*   100+   28                       2.36837e+08   2.27966e+08             3.75%
*   206    22      integral     0   2.35745e+08   2.34096e+08      705    0.70%

Gomory fractional cuts applied:  5

Root node processing (before b&c):
  Real time             =    0.01 sec. (9.20 ticks)
Sequential b&c:
  Real time             =    0.01 sec. (8.94 ticks)
                          ------------
Total (root+branch&cut) =    0.02 sec. (18.14 ticks)

Solution pool: 9 solutions saved.

MIP - Integer optimal solution:  Objective =  2.3574505200e+08
Solution time =    0.02 sec.  Iterations = 789  Nodes = 298
Deterministic time = 18.14 ticks  (779.72 ticks/sec)


Incumbent solution written to file '/tmp/tmp7mHMcm.cplex.sol'.
